SCIP version 5.0.0 [precision: 8 byte] [memory: block] [mode: optimized] [LP solver: NONE] [GitHash: 3bbd232]
Copyright (C) 2002-2017 Konrad-Zuse-Zentrum fuer Informationstechnik Berlin (ZIB)

External codes: 
  Readline EditLine w  GNU library for command line editing (gnu.org/s/readline)
  CppAD 20160000.1     Algorithmic Differentiation of C++ algorithms developed by B. Bell (www.coin-or.org/CppAD)
  ZLIB 1.2.5           General purpose compression library by J. Gailly and M. Adler (zlib.net)
  GMP 6.1.2            GNU Multiple Precision Arithmetic Library developed by T. Granlund (gmplib.org)

user parameter file <scip.set> not found - using default parameters

read problem <../../Split_data/output/breast/8/0_sample_breast.logreg>
============

File name	:	../../Split_data/output/breast/8/0_sample_breast.logreg
Problem name 	:	0_sample_breast
Number of data	:	155
Number of var	:	33
The given data has linear dependence
17 sets of column vector are linearly dependent:
elements are all 0
elements are all 0
elements are all 0
elements are all 0
elements are all 0
elements are all 0

[dim=1] time: 0.003669
[dim=2] time: 0.006029
[dim=3] time: 0.009246
[dim=4] time: 0.011591
[dim=5] time: 0.013955
[dim=6] time: 0.016275
[dim=7] Time of forward = 0.019334sec.
AIC: 138.28
k: 6

[dim=16] time: 0.00638
[dim=15] time: 0.009894
[dim=14] time: 0.013588
[dim=13] time: 0.017182
[dim=12] time: 0.019665
[dim=11] time: 0.021964
[dim=10] time: 0.024221
[dim=9] time: 0.026034
[dim=8] time: 0.027542
[dim=7] Time of backward = 0.028839sec.
AIC: 136.79
k: 8
